# Objective value = 90
cmax 90
t_1_1 0
t_1_2 13
t_1_3 25
t_1_4 36
t_1_5 52
t_2_1 23
t_2_2 35
t_2_3 47
t_2_4 63
t_2_5 73
t_3_1 12
t_3_2 26
t_3_3 38
t_3_4 49
t_3_5 59
t_4_1 13
t_4_2 41
t_4_3 54
t_4_4 64
t_4_5 74
t_5_1 0
t_5_2 12
t_5_3 24
t_5_4 36
t_5_5 47
t_6_1 0
t_6_2 12
t_6_3 32
t_6_4 49
t_6_5 62
t_7_1 0
t_7_2 14
t_7_3 25
t_7_4 35
t_7_5 45
t_8_1 14
t_8_2 27
t_8_3 49
t_8_4 60
t_8_5 72
t_9_1 12
t_9_2 23
t_9_3 35
t_9_4 50
t_9_5 62
t_10_1 26
t_10_2 38
t_10_3 50
t_10_4 65
t_10_5 78
a_1_1_0 0
a_1_1_1 0
a_1_1_2 1
a_1_1_3 0
a_1_2_8 0
a_1_2_9 0
a_1_2_10 1
a_1_2_11 0
a_1_3_8 0
a_1_3_9 1
a_1_3_10 0
a_1_3_11 0
a_1_3_12 0
a_1_3_13 0
a_1_3_14 0
a_1_3_15 0
a_1_4_4 1
a_1_4_5 0
a_1_4_6 0
a_1_4_7 0
a_1_5_16 1
a_1_5_17 0
a_1_5_18 0
a_1_5_19 0
a_2_1_0 1
a_2_1_1 0
a_2_1_2 0
a_2_1_3 0
a_2_2_12 1
a_2_2_13 0
a_2_2_14 0
a_2_2_15 0
a_2_3_4 0
a_2_3_5 1
a_2_3_6 0
a_2_3_7 0
a_2_3_12 0
a_2_3_13 0
a_2_3_14 0
a_2_3_15 0
a_2_4_8 0
a_2_4_9 0
a_2_4_10 0
a_2_4_11 0
a_2_4_12 1
a_2_4_13 0
a_2_4_14 0
a_2_4_15 0
a_2_5_16 1
a_2_5_17 0
a_2_5_18 0
a_2_5_19 0
a_3_1_0 0
a_3_1_1 1
a_3_1_2 0
a_3_1_3 0
a_3_2_4 0
a_3_2_5 1
a_3_2_6 0
a_3_2_7 0
a_3_2_8 0
a_3_2_9 0
a_3_2_10 0
a_3_2_11 0
a_3_2_12 0
a_3_2_13 0
a_3_2_14 0
a_3_2_15 0
a_3_3_4 0
a_3_3_5 0
a_3_3_6 0
a_3_3_7 0
a_3_3_8 0
a_3_3_9 0
a_3_3_10 0
a_3_3_11 0
a_3_3_12 0
a_3_3_13 0
a_3_3_14 0
a_3_3_15 1
a_3_4_12 0
a_3_4_13 0
a_3_4_14 0
a_3_4_15 1
a_3_5_16 0
a_3_5_17 0
a_3_5_18 1
a_3_5_19 0
a_4_1_0 0
a_4_1_1 0
a_4_1_2 1
a_4_1_3 0
a_4_2_4 0
a_4_2_5 0
a_4_2_6 0
a_4_2_7 1
a_4_2_8 0
a_4_2_9 0
a_4_2_10 0
a_4_2_11 0
a_4_2_12 0
a_4_2_13 0
a_4_2_14 0
a_4_2_15 0
a_4_3_12 0
a_4_3_13 0
a_4_3_14 1
a_4_3_15 0
a_4_4_12 0
a_4_4_13 0
a_4_4_14 0
a_4_4_15 1
a_4_5_16 0
a_4_5_17 0
a_4_5_18 0
a_4_5_19 1
a_5_1_0 0
a_5_1_1 1
a_5_1_2 0
a_5_1_3 0
a_5_2_4 1
a_5_2_5 0
a_5_2_6 0
a_5_2_7 0
a_5_2_8 0
a_5_2_9 0
a_5_2_10 0
a_5_2_11 0
a_5_3_4 0
a_5_3_5 0
a_5_3_6 0
a_5_3_7 0
a_5_3_8 0
a_5_3_9 0
a_5_3_10 0
a_5_3_11 1
a_5_4_4 0
a_5_4_5 0
a_5_4_6 1
a_5_4_7 0
a_5_5_16 0
a_5_5_17 0
a_5_5_18 1
a_5_5_19 0
a_6_1_0 1
a_6_1_1 0
a_6_1_2 0
a_6_1_3 0
a_6_2_4 0
a_6_2_5 0
a_6_2_6 0
a_6_2_7 1
a_6_3_4 0
a_6_3_5 0
a_6_3_6 0
a_6_3_7 0
a_6_3_12 0
a_6_3_13 0
a_6_3_14 1
a_6_3_15 0
a_6_4_4 0
a_6_4_5 0
a_6_4_6 0
a_6_4_7 0
a_6_4_8 1
a_6_4_9 0
a_6_4_10 0
a_6_4_11 0
a_6_4_12 0
a_6_4_13 0
a_6_4_14 0
a_6_4_15 0
a_6_5_16 0
a_6_5_17 1
a_6_5_18 0
a_6_5_19 0
a_7_1_0 0
a_7_1_1 0
a_7_1_2 0
a_7_1_3 1
a_7_2_12 0
a_7_2_13 1
a_7_2_14 0
a_7_2_15 0
a_7_3_8 0
a_7_3_9 0
a_7_3_10 1
a_7_3_11 0
a_7_4_4 0
a_7_4_5 0
a_7_4_6 0
a_7_4_7 0
a_7_4_8 0
a_7_4_9 0
a_7_4_10 0
a_7_4_11 0
a_7_4_12 0
a_7_4_13 1
a_7_4_14 0
a_7_4_15 0
a_7_5_16 0
a_7_5_17 1
a_7_5_18 0
a_7_5_19 0
a_8_1_0 0
a_8_1_1 0
a_8_1_2 0
a_8_1_3 1
a_8_2_8 1
a_8_2_9 0
a_8_2_10 0
a_8_2_11 0
a_8_2_12 0
a_8_2_13 0
a_8_2_14 0
a_8_2_15 0
a_8_3_4 0
a_8_3_5 0
a_8_3_6 0
a_8_3_7 0
a_8_3_8 0
a_8_3_9 1
a_8_3_10 0
a_8_3_11 0
a_8_3_12 0
a_8_3_13 0
a_8_3_14 0
a_8_3_15 0
a_8_4_4 1
a_8_4_5 0
a_8_4_6 0
a_8_4_7 0
a_8_4_8 0
a_8_4_9 0
a_8_4_10 0
a_8_4_11 0
a_8_4_12 0
a_8_4_13 0
a_8_4_14 0
a_8_4_15 0
a_8_5_16 0
a_8_5_17 0
a_8_5_18 1
a_8_5_19 0
a_9_1_0 1
a_9_1_1 0
a_9_1_2 0
a_9_1_3 0
a_9_2_12 0
a_9_2_13 0
a_9_2_14 0
a_9_2_15 1
a_9_3_4 0
a_9_3_5 0
a_9_3_6 0
a_9_3_7 0
a_9_3_8 0
a_9_3_9 0
a_9_3_10 1
a_9_3_11 0
a_9_4_8 0
a_9_4_9 0
a_9_4_10 0
a_9_4_11 1
a_9_4_12 0
a_9_4_13 0
a_9_4_14 0
a_9_4_15 0
a_9_5_16 0
a_9_5_17 0
a_9_5_18 0
a_9_5_19 1
a_10_1_0 0
a_10_1_1 1
a_10_1_2 0
a_10_1_3 0
a_10_2_4 0
a_10_2_5 0
a_10_2_6 0
a_10_2_7 0
a_10_2_8 0
a_10_2_9 0
a_10_2_10 0
a_10_2_11 1
a_10_3_8 0
a_10_3_9 0
a_10_3_10 1
a_10_3_11 0
a_10_4_4 0
a_10_4_5 1
a_10_4_6 0
a_10_4_7 0
a_10_4_8 0
a_10_4_9 0
a_10_4_10 0
a_10_4_11 0
a_10_4_12 0
a_10_4_13 0
a_10_4_14 0
a_10_4_15 0
a_10_5_16 0
a_10_5_17 1
a_10_5_18 0
a_10_5_19 0
B_1_1_1_1 0
B_1_1_1_2 0
B_1_1_1_3 0
B_1_1_1_4 0
B_1_1_1_5 0
B_1_1_2_1 1
B_1_1_2_2 0
B_1_1_2_3 0
B_1_1_2_4 0
B_1_1_2_5 0
B_1_1_3_1 0
B_1_1_3_2 0
B_1_1_3_3 0
B_1_1_3_4 0
B_1_1_3_5 0
B_1_1_4_1 1
B_1_1_4_2 0
B_1_1_4_3 0
B_1_1_4_4 0
B_1_1_4_5 0
B_1_1_5_1 0
B_1_1_5_2 0
B_1_1_5_3 0
B_1_1_5_4 0
B_1_1_5_5 0
B_1_1_6_1 0
B_1_1_6_2 0
B_1_1_6_3 0
B_1_1_6_4 0
B_1_1_6_5 0
B_1_1_7_1 1
B_1_1_7_2 0
B_1_1_7_3 0
B_1_1_7_4 0
B_1_1_7_5 0
B_1_1_8_1 0
B_1_1_8_2 0
B_1_1_8_3 0
B_1_1_8_4 0
B_1_1_8_5 0
B_1_1_9_1 1
B_1_1_9_2 0
B_1_1_9_3 0
B_1_1_9_4 0
B_1_1_9_5 0
B_1_1_10_1 0
B_1_1_10_2 0
B_1_1_10_3 0
B_1_1_10_4 0
B_1_1_10_5 0
B_1_2_1_1 0
B_1_2_1_2 0
B_1_2_1_3 0
B_1_2_1_4 0
B_1_2_1_5 0
B_1_2_2_1 0
B_1_2_2_2 0
B_1_2_2_3 0
B_1_2_2_4 0
B_1_2_2_5 0
B_1_2_3_1 0
B_1_2_3_2 0
B_1_2_3_3 0
B_1_2_3_4 0
B_1_2_3_5 0
B_1_2_4_1 0
B_1_2_4_2 1
B_1_2_4_3 0
B_1_2_4_4 0
B_1_2_4_5 0
B_1_2_5_1 0
B_1_2_5_2 0
B_1_2_5_3 1
B_1_2_5_4 0
B_1_2_5_5 0
B_1_2_6_1 0
B_1_2_6_2 0
B_1_2_6_3 0
B_1_2_6_4 1
B_1_2_6_5 0
B_1_2_7_1 0
B_1_2_7_2 0
B_1_2_7_3 1
B_1_2_7_4 1
B_1_2_7_5 0
B_1_2_8_1 0
B_1_2_8_2 1
B_1_2_8_3 0
B_1_2_8_4 1
B_1_2_8_5 0
B_1_2_9_1 0
B_1_2_9_2 0
B_1_2_9_3 1
B_1_2_9_4 1
B_1_2_9_5 0
B_1_2_10_1 0
B_1_2_10_2 1
B_1_2_10_3 1
B_1_2_10_4 1
B_1_2_10_5 0
B_1_3_1_1 0
B_1_3_1_2 0
B_1_3_1_3 0
B_1_3_1_4 0
B_1_3_1_5 0
B_1_3_2_1 0
B_1_3_2_2 0
B_1_3_2_3 0
B_1_3_2_4 1
B_1_3_2_5 0
B_1_3_3_1 0
B_1_3_3_2 0
B_1_3_3_3 0
B_1_3_3_4 1
B_1_3_3_5 0
B_1_3_4_1 0
B_1_3_4_2 1
B_1_3_4_3 1
B_1_3_4_4 0
B_1_3_4_5 0
B_1_3_5_1 0
B_1_3_5_2 0
B_1_3_5_3 0
B_1_3_5_4 0
B_1_3_5_5 0
B_1_3_6_1 0
B_1_3_6_2 0
B_1_3_6_3 0
B_1_3_6_4 1
B_1_3_6_5 0
B_1_3_7_1 0
B_1_3_7_2 0
B_1_3_7_3 0
B_1_3_7_4 1
B_1_3_7_5 0
B_1_3_8_1 0
B_1_3_8_2 1
B_1_3_8_3 1
B_1_3_8_4 0
B_1_3_8_5 0
B_1_3_9_1 0
B_1_3_9_2 0
B_1_3_9_3 1
B_1_3_9_4 1
B_1_3_9_5 0
B_1_3_10_1 0
B_1_3_10_2 0
B_1_3_10_3 1
B_1_3_10_4 1
B_1_3_10_5 0
B_1_4_1_1 0
B_1_4_1_2 0
B_1_4_1_3 0
B_1_4_1_4 0
B_1_4_1_5 0
B_1_4_2_1 0
B_1_4_2_2 0
B_1_4_2_3 0
B_1_4_2_4 0
B_1_4_2_5 0
B_1_4_3_1 0
B_1_4_3_2 0
B_1_4_3_3 1
B_1_4_3_4 0
B_1_4_3_5 0
B_1_4_4_1 0
B_1_4_4_2 0
B_1_4_4_3 0
B_1_4_4_4 0
B_1_4_4_5 0
B_1_4_5_1 0
B_1_4_5_2 0
B_1_4_5_3 0
B_1_4_5_4 1
B_1_4_5_5 0
B_1_4_6_1 0
B_1_4_6_2 0
B_1_4_6_3 0
B_1_4_6_4 0
B_1_4_6_5 0
B_1_4_7_1 0
B_1_4_7_2 0
B_1_4_7_3 0
B_1_4_7_4 0
B_1_4_7_5 0
B_1_4_8_1 0
B_1_4_8_2 0
B_1_4_8_3 0
B_1_4_8_4 1
B_1_4_8_5 0
B_1_4_9_1 0
B_1_4_9_2 0
B_1_4_9_3 0
B_1_4_9_4 0
B_1_4_9_5 0
B_1_4_10_1 0
B_1_4_10_2 0
B_1_4_10_3 0
B_1_4_10_4 1
B_1_4_10_5 0
B_1_5_1_1 0
B_1_5_1_2 0
B_1_5_1_3 0
B_1_5_1_4 0
B_1_5_1_5 0
B_1_5_2_1 0
B_1_5_2_2 0
B_1_5_2_3 0
B_1_5_2_4 0
B_1_5_2_5 1
B_1_5_3_1 0
B_1_5_3_2 0
B_1_5_3_3 0
B_1_5_3_4 0
B_1_5_3_5 0
B_1_5_4_1 0
B_1_5_4_2 0
B_1_5_4_3 0
B_1_5_4_4 0
B_1_5_4_5 0
B_1_5_5_1 0
B_1_5_5_2 0
B_1_5_5_3 0
B_1_5_5_4 0
B_1_5_5_5 1
B_1_5_6_1 0
B_1_5_6_2 0
B_1_5_6_3 0
B_1_5_6_4 0
B_1_5_6_5 0
B_1_5_7_1 0
B_1_5_7_2 0
B_1_5_7_3 0
B_1_5_7_4 0
B_1_5_7_5 1
B_1_5_8_1 0
B_1_5_8_2 0
B_1_5_8_3 0
B_1_5_8_4 0
B_1_5_8_5 0
B_1_5_9_1 0
B_1_5_9_2 0
B_1_5_9_3 0
B_1_5_9_4 0
B_1_5_9_5 0
B_1_5_10_1 0
B_1_5_10_2 0
B_1_5_10_3 0
B_1_5_10_4 0
B_1_5_10_5 0
B_2_1_1_1 0
B_2_1_1_2 0
B_2_1_1_3 0
B_2_1_1_4 0
B_2_1_1_5 0
B_2_1_2_1 0
B_2_1_2_2 0
B_2_1_2_3 0
B_2_1_2_4 0
B_2_1_2_5 0
B_2_1_3_1 1
B_2_1_3_2 0
B_2_1_3_3 0
B_2_1_3_4 0
B_2_1_3_5 0
B_2_1_4_1 0
B_2_1_4_2 0
B_2_1_4_3 0
B_2_1_4_4 0
B_2_1_4_5 0
B_2_1_5_1 1
B_2_1_5_2 0
B_2_1_5_3 0
B_2_1_5_4 0
B_2_1_5_5 0
B_2_1_6_1 0
B_2_1_6_2 0
B_2_1_6_3 0
B_2_1_6_4 0
B_2_1_6_5 0
B_2_1_7_1 1
B_2_1_7_2 0
B_2_1_7_3 0
B_2_1_7_4 0
B_2_1_7_5 0
B_2_1_8_1 0
B_2_1_8_2 0
B_2_1_8_3 0
B_2_1_8_4 0
B_2_1_8_5 0
B_2_1_9_1 0
B_2_1_9_2 0
B_2_1_9_3 0
B_2_1_9_4 0
B_2_1_9_5 0
B_2_1_10_1 1
B_2_1_10_2 0
B_2_1_10_3 0
B_2_1_10_4 0
B_2_1_10_5 0
B_2_2_1_1 0
B_2_2_1_2 0
B_2_2_1_3 0
B_2_2_1_4 0
B_2_2_1_5 0
B_2_2_2_1 0
B_2_2_2_2 0
B_2_2_2_3 0
B_2_2_2_4 0
B_2_2_2_5 0
B_2_2_3_1 0
B_2_2_3_2 0
B_2_2_3_3 1
B_2_2_3_4 1
B_2_2_3_5 0
B_2_2_4_1 0
B_2_2_4_2 1
B_2_2_4_3 1
B_2_2_4_4 1
B_2_2_4_5 0
B_2_2_5_1 0
B_2_2_5_2 0
B_2_2_5_3 0
B_2_2_5_4 0
B_2_2_5_5 0
B_2_2_6_1 0
B_2_2_6_2 0
B_2_2_6_3 1
B_2_2_6_4 1
B_2_2_6_5 0
B_2_2_7_1 0
B_2_2_7_2 0
B_2_2_7_3 0
B_2_2_7_4 0
B_2_2_7_5 0
B_2_2_8_1 0
B_2_2_8_2 1
B_2_2_8_3 0
B_2_2_8_4 0
B_2_2_8_5 0
B_2_2_9_1 0
B_2_2_9_2 1
B_2_2_9_3 0
B_2_2_9_4 0
B_2_2_9_5 0
B_2_2_10_1 0
B_2_2_10_2 0
B_2_2_10_3 0
B_2_2_10_4 1
B_2_2_10_5 0
B_2_3_1_1 0
B_2_3_1_2 0
B_2_3_1_3 0
B_2_3_1_4 0
B_2_3_1_5 0
B_2_3_2_1 0
B_2_3_2_2 0
B_2_3_2_3 0
B_2_3_2_4 0
B_2_3_2_5 0
B_2_3_3_1 0
B_2_3_3_2 0
B_2_3_3_3 1
B_2_3_3_4 1
B_2_3_3_5 0
B_2_3_4_1 0
B_2_3_4_2 0
B_2_3_4_3 0
B_2_3_4_4 1
B_2_3_4_5 0
B_2_3_5_1 0
B_2_3_5_2 0
B_2_3_5_3 0
B_2_3_5_4 1
B_2_3_5_5 0
B_2_3_6_1 0
B_2_3_6_2 0
B_2_3_6_3 0
B_2_3_6_4 1
B_2_3_6_5 0
B_2_3_7_1 0
B_2_3_7_2 1
B_2_3_7_3 0
B_2_3_7_4 1
B_2_3_7_5 0
B_2_3_8_1 0
B_2_3_8_2 0
B_2_3_8_3 0
B_2_3_8_4 1
B_2_3_8_5 0
B_2_3_9_1 0
B_2_3_9_2 1
B_2_3_9_3 0
B_2_3_9_4 1
B_2_3_9_5 0
B_2_3_10_1 0
B_2_3_10_2 0
B_2_3_10_3 0
B_2_3_10_4 1
B_2_3_10_5 0
B_2_4_1_1 0
B_2_4_1_2 0
B_2_4_1_3 0
B_2_4_1_4 0
B_2_4_1_5 0
B_2_4_2_1 0
B_2_4_2_2 0
B_2_4_2_3 0
B_2_4_2_4 0
B_2_4_2_5 0
B_2_4_3_1 0
B_2_4_3_2 0
B_2_4_3_3 0
B_2_4_3_4 0
B_2_4_3_5 0
B_2_4_4_1 0
B_2_4_4_2 0
B_2_4_4_3 1
B_2_4_4_4 1
B_2_4_4_5 0
B_2_4_5_1 0
B_2_4_5_2 0
B_2_4_5_3 0
B_2_4_5_4 0
B_2_4_5_5 0
B_2_4_6_1 0
B_2_4_6_2 0
B_2_4_6_3 0
B_2_4_6_4 1
B_2_4_6_5 0
B_2_4_7_1 0
B_2_4_7_2 0
B_2_4_7_3 0
B_2_4_7_4 0
B_2_4_7_5 0
B_2_4_8_1 0
B_2_4_8_2 1
B_2_4_8_3 0
B_2_4_8_4 0
B_2_4_8_5 0
B_2_4_9_1 0
B_2_4_9_2 0
B_2_4_9_3 0
B_2_4_9_4 0
B_2_4_9_5 0
B_2_4_10_1 0
B_2_4_10_2 0
B_2_4_10_3 0
B_2_4_10_4 1
B_2_4_10_5 0
B_2_5_1_1 0
B_2_5_1_2 0
B_2_5_1_3 0
B_2_5_1_4 0
B_2_5_1_5 0
B_2_5_2_1 0
B_2_5_2_2 0
B_2_5_2_3 0
B_2_5_2_4 0
B_2_5_2_5 0
B_2_5_3_1 0
B_2_5_3_2 0
B_2_5_3_3 0
B_2_5_3_4 0
B_2_5_3_5 1
B_2_5_4_1 0
B_2_5_4_2 0
B_2_5_4_3 0
B_2_5_4_4 0
B_2_5_4_5 1
B_2_5_5_1 0
B_2_5_5_2 0
B_2_5_5_3 0
B_2_5_5_4 0
B_2_5_5_5 1
B_2_5_6_1 0
B_2_5_6_2 0
B_2_5_6_3 0
B_2_5_6_4 0
B_2_5_6_5 1
B_2_5_7_1 0
B_2_5_7_2 0
B_2_5_7_3 0
B_2_5_7_4 0
B_2_5_7_5 0
B_2_5_8_1 0
B_2_5_8_2 0
B_2_5_8_3 0
B_2_5_8_4 0
B_2_5_8_5 0
B_2_5_9_1 0
B_2_5_9_2 0
B_2_5_9_3 0
B_2_5_9_4 0
B_2_5_9_5 1
B_2_5_10_1 0
B_2_5_10_2 0
B_2_5_10_3 0
B_2_5_10_4 0
B_2_5_10_5 1
B_3_1_1_1 0
B_3_1_1_2 0
B_3_1_1_3 0
B_3_1_1_4 0
B_3_1_1_5 0
B_3_1_2_1 0
B_3_1_2_2 0
B_3_1_2_3 0
B_3_1_2_4 0
B_3_1_2_5 0
B_3_1_3_1 0
B_3_1_3_2 0
B_3_1_3_3 0
B_3_1_3_4 0
B_3_1_3_5 0
B_3_1_4_1 1
B_3_1_4_2 0
B_3_1_4_3 0
B_3_1_4_4 0
B_3_1_4_5 0
B_3_1_5_1 0
B_3_1_5_2 0
B_3_1_5_3 0
B_3_1_5_4 0
B_3_1_5_5 0
B_3_1_6_1 0
B_3_1_6_2 0
B_3_1_6_3 0
B_3_1_6_4 0
B_3_1_6_5 0
B_3_1_7_1 0
B_3_1_7_2 0
B_3_1_7_3 0
B_3_1_7_4 0
B_3_1_7_5 0
B_3_1_8_1 0
B_3_1_8_2 0
B_3_1_8_3 0
B_3_1_8_4 0
B_3_1_8_5 0
B_3_1_9_1 0
B_3_1_9_2 0
B_3_1_9_3 0
B_3_1_9_4 0
B_3_1_9_5 0
B_3_1_10_1 1
B_3_1_10_2 0
B_3_1_10_3 0
B_3_1_10_4 0
B_3_1_10_5 0
B_3_2_1_1 0
B_3_2_1_2 0
B_3_2_1_3 0
B_3_2_1_4 0
B_3_2_1_5 0
B_3_2_2_1 0
B_3_2_2_2 0
B_3_2_2_3 0
B_3_2_2_4 0
B_3_2_2_5 0
B_3_2_3_1 0
B_3_2_3_2 0
B_3_2_3_3 0
B_3_2_3_4 0
B_3_2_3_5 0
B_3_2_4_1 0
B_3_2_4_2 0
B_3_2_4_3 0
B_3_2_4_4 0
B_3_2_4_5 0
B_3_2_5_1 0
B_3_2_5_2 0
B_3_2_5_3 1
B_3_2_5_4 1
B_3_2_5_5 0
B_3_2_6_1 0
B_3_2_6_2 0
B_3_2_6_3 1
B_3_2_6_4 0
B_3_2_6_5 0
B_3_2_7_1 0
B_3_2_7_2 0
B_3_2_7_3 0
B_3_2_7_4 0
B_3_2_7_5 0
B_3_2_8_1 0
B_3_2_8_2 0
B_3_2_8_3 1
B_3_2_8_4 1
B_3_2_8_5 0
B_3_2_9_1 0
B_3_2_9_2 0
B_3_2_9_3 0
B_3_2_9_4 0
B_3_2_9_5 0
B_3_2_10_1 0
B_3_2_10_2 0
B_3_2_10_3 0
B_3_2_10_4 1
B_3_2_10_5 0
B_3_3_1_1 0
B_3_3_1_2 0
B_3_3_1_3 0
B_3_3_1_4 0
B_3_3_1_5 0
B_3_3_2_1 0
B_3_3_2_2 0
B_3_3_2_3 0
B_3_3_2_4 0
B_3_3_2_5 0
B_3_3_3_1 0
B_3_3_3_2 0
B_3_3_3_3 0
B_3_3_3_4 0
B_3_3_3_5 0
B_3_3_4_1 0
B_3_3_4_2 0
B_3_3_4_3 1
B_3_3_4_4 1
B_3_3_4_5 0
B_3_3_5_1 0
B_3_3_5_2 0
B_3_3_5_3 0
B_3_3_5_4 1
B_3_3_5_5 0
B_3_3_6_1 0
B_3_3_6_2 0
B_3_3_6_3 0
B_3_3_6_4 0
B_3_3_6_5 0
B_3_3_7_1 0
B_3_3_7_2 0
B_3_3_7_3 0
B_3_3_7_4 1
B_3_3_7_5 0
B_3_3_8_1 0
B_3_3_8_2 0
B_3_3_8_3 1
B_3_3_8_4 0
B_3_3_8_5 0
B_3_3_9_1 0
B_3_3_9_2 0
B_3_3_9_3 0
B_3_3_9_4 1
B_3_3_9_5 0
B_3_3_10_1 0
B_3_3_10_2 1
B_3_3_10_3 0
B_3_3_10_4 1
B_3_3_10_5 0
B_3_4_1_1 0
B_3_4_1_2 0
B_3_4_1_3 0
B_3_4_1_4 0
B_3_4_1_5 0
B_3_4_2_1 0
B_3_4_2_2 0
B_3_4_2_3 0
B_3_4_2_4 0
B_3_4_2_5 0
B_3_4_3_1 0
B_3_4_3_2 0
B_3_4_3_3 0
B_3_4_3_4 0
B_3_4_3_5 0
B_3_4_4_1 0
B_3_4_4_2 0
B_3_4_4_3 0
B_3_4_4_4 1
B_3_4_4_5 0
B_3_4_5_1 0
B_3_4_5_2 0
B_3_4_5_3 0
B_3_4_5_4 0
B_3_4_5_5 0
B_3_4_6_1 0
B_3_4_6_2 0
B_3_4_6_3 0
B_3_4_6_4 0
B_3_4_6_5 0
B_3_4_7_1 0
B_3_4_7_2 0
B_3_4_7_3 0
B_3_4_7_4 1
B_3_4_7_5 0
B_3_4_8_1 0
B_3_4_8_2 0
B_3_4_8_3 0
B_3_4_8_4 0
B_3_4_8_5 0
B_3_4_9_1 0
B_3_4_9_2 0
B_3_4_9_3 0
B_3_4_9_4 0
B_3_4_9_5 0
B_3_4_10_1 0
B_3_4_10_2 0
B_3_4_10_3 0
B_3_4_10_4 0
B_3_4_10_5 0
B_3_5_1_1 0
B_3_5_1_2 0
B_3_5_1_3 0
B_3_5_1_4 0
B_3_5_1_5 0
B_3_5_2_1 0
B_3_5_2_2 0
B_3_5_2_3 0
B_3_5_2_4 0
B_3_5_2_5 0
B_3_5_3_1 0
B_3_5_3_2 0
B_3_5_3_3 0
B_3_5_3_4 0
B_3_5_3_5 0
B_3_5_4_1 0
B_3_5_4_2 0
B_3_5_4_3 0
B_3_5_4_4 0
B_3_5_4_5 1
B_3_5_5_1 0
B_3_5_5_2 0
B_3_5_5_3 0
B_3_5_5_4 0
B_3_5_5_5 0
B_3_5_6_1 0
B_3_5_6_2 0
B_3_5_6_3 0
B_3_5_6_4 0
B_3_5_6_5 0
B_3_5_7_1 0
B_3_5_7_2 0
B_3_5_7_3 0
B_3_5_7_4 0
B_3_5_7_5 1
B_3_5_8_1 0
B_3_5_8_2 0
B_3_5_8_3 0
B_3_5_8_4 0
B_3_5_8_5 1
B_3_5_9_1 0
B_3_5_9_2 0
B_3_5_9_3 0
B_3_5_9_4 0
B_3_5_9_5 1
B_3_5_10_1 0
B_3_5_10_2 0
B_3_5_10_3 0
B_3_5_10_4 0
B_3_5_10_5 1
B_4_1_1_1 0
B_4_1_1_2 0
B_4_1_1_3 0
B_4_1_1_4 0
B_4_1_1_5 0
B_4_1_2_1 0
B_4_1_2_2 0
B_4_1_2_3 0
B_4_1_2_4 0
B_4_1_2_5 0
B_4_1_3_1 0
B_4_1_3_2 0
B_4_1_3_3 0
B_4_1_3_4 0
B_4_1_3_5 0
B_4_1_4_1 0
B_4_1_4_2 0
B_4_1_4_3 0
B_4_1_4_4 0
B_4_1_4_5 0
B_4_1_5_1 1
B_4_1_5_2 0
B_4_1_5_3 0
B_4_1_5_4 0
B_4_1_5_5 0
B_4_1_6_1 1
B_4_1_6_2 0
B_4_1_6_3 0
B_4_1_6_4 0
B_4_1_6_5 0
B_4_1_7_1 0
B_4_1_7_2 0
B_4_1_7_3 0
B_4_1_7_4 0
B_4_1_7_5 0
B_4_1_8_1 0
B_4_1_8_2 0
B_4_1_8_3 0
B_4_1_8_4 0
B_4_1_8_5 0
B_4_1_9_1 0
B_4_1_9_2 0
B_4_1_9_3 0
B_4_1_9_4 0
B_4_1_9_5 0
B_4_1_10_1 0
B_4_1_10_2 0
B_4_1_10_3 0
B_4_1_10_4 0
B_4_1_10_5 0
B_4_2_1_1 0
B_4_2_1_2 0
B_4_2_1_3 0
B_4_2_1_4 0
B_4_2_1_5 0
B_4_2_2_1 0
B_4_2_2_2 0
B_4_2_2_3 0
B_4_2_2_4 0
B_4_2_2_5 0
B_4_2_3_1 0
B_4_2_3_2 0
B_4_2_3_3 0
B_4_2_3_4 0
B_4_2_3_5 0
B_4_2_4_1 0
B_4_2_4_2 0
B_4_2_4_3 0
B_4_2_4_4 0
B_4_2_4_5 0
B_4_2_5_1 0
B_4_2_5_2 0
B_4_2_5_3 1
B_4_2_5_4 1
B_4_2_5_5 0
B_4_2_6_1 0
B_4_2_6_2 0
B_4_2_6_3 0
B_4_2_6_4 1
B_4_2_6_5 0
B_4_2_7_1 0
B_4_2_7_2 0
B_4_2_7_3 0
B_4_2_7_4 0
B_4_2_7_5 0
B_4_2_8_1 0
B_4_2_8_2 0
B_4_2_8_3 0
B_4_2_8_4 1
B_4_2_8_5 0
B_4_2_9_1 0
B_4_2_9_2 1
B_4_2_9_3 0
B_4_2_9_4 0
B_4_2_9_5 0
B_4_2_10_1 0
B_4_2_10_2 0
B_4_2_10_3 0
B_4_2_10_4 1
B_4_2_10_5 0
B_4_3_1_1 0
B_4_3_1_2 0
B_4_3_1_3 0
B_4_3_1_4 0
B_4_3_1_5 0
B_4_3_2_1 0
B_4_3_2_2 0
B_4_3_2_3 0
B_4_3_2_4 0
B_4_3_2_5 0
B_4_3_3_1 0
B_4_3_3_2 0
B_4_3_3_3 0
B_4_3_3_4 0
B_4_3_3_5 0
B_4_3_4_1 0
B_4_3_4_2 0
B_4_3_4_3 0
B_4_3_4_4 0
B_4_3_4_5 0
B_4_3_5_1 0
B_4_3_5_2 0
B_4_3_5_3 0
B_4_3_5_4 0
B_4_3_5_5 0
B_4_3_6_1 0
B_4_3_6_2 0
B_4_3_6_3 0
B_4_3_6_4 0
B_4_3_6_5 0
B_4_3_7_1 0
B_4_3_7_2 0
B_4_3_7_3 0
B_4_3_7_4 0
B_4_3_7_5 0
B_4_3_8_1 0
B_4_3_8_2 0
B_4_3_8_3 0
B_4_3_8_4 1
B_4_3_8_5 0
B_4_3_9_1 0
B_4_3_9_2 0
B_4_3_9_3 0
B_4_3_9_4 0
B_4_3_9_5 0
B_4_3_10_1 0
B_4_3_10_2 0
B_4_3_10_3 0
B_4_3_10_4 0
B_4_3_10_5 0
B_4_4_1_1 0
B_4_4_1_2 0
B_4_4_1_3 0
B_4_4_1_4 0
B_4_4_1_5 0
B_4_4_2_1 0
B_4_4_2_2 0
B_4_4_2_3 0
B_4_4_2_4 0
B_4_4_2_5 0
B_4_4_3_1 0
B_4_4_3_2 0
B_4_4_3_3 0
B_4_4_3_4 0
B_4_4_3_5 0
B_4_4_4_1 0
B_4_4_4_2 0
B_4_4_4_3 0
B_4_4_4_4 0
B_4_4_4_5 0
B_4_4_5_1 0
B_4_4_5_2 0
B_4_4_5_3 0
B_4_4_5_4 0
B_4_4_5_5 0
B_4_4_6_1 0
B_4_4_6_2 0
B_4_4_6_3 0
B_4_4_6_4 0
B_4_4_6_5 0
B_4_4_7_1 0
B_4_4_7_2 0
B_4_4_7_3 0
B_4_4_7_4 0
B_4_4_7_5 0
B_4_4_8_1 0
B_4_4_8_2 0
B_4_4_8_3 0
B_4_4_8_4 1
B_4_4_8_5 0
B_4_4_9_1 0
B_4_4_9_2 0
B_4_4_9_3 0
B_4_4_9_4 0
B_4_4_9_5 0
B_4_4_10_1 0
B_4_4_10_2 0
B_4_4_10_3 0
B_4_4_10_4 1
B_4_4_10_5 0
B_4_5_1_1 0
B_4_5_1_2 0
B_4_5_1_3 0
B_4_5_1_4 0
B_4_5_1_5 0
B_4_5_2_1 0
B_4_5_2_2 0
B_4_5_2_3 0
B_4_5_2_4 0
B_4_5_2_5 0
B_4_5_3_1 0
B_4_5_3_2 0
B_4_5_3_3 0
B_4_5_3_4 0
B_4_5_3_5 0
B_4_5_4_1 0
B_4_5_4_2 0
B_4_5_4_3 0
B_4_5_4_4 0
B_4_5_4_5 0
B_4_5_5_1 0
B_4_5_5_2 0
B_4_5_5_3 0
B_4_5_5_4 0
B_4_5_5_5 0
B_4_5_6_1 0
B_4_5_6_2 0
B_4_5_6_3 0
B_4_5_6_4 0
B_4_5_6_5 1
B_4_5_7_1 0
B_4_5_7_2 0
B_4_5_7_3 0
B_4_5_7_4 0
B_4_5_7_5 0
B_4_5_8_1 0
B_4_5_8_2 0
B_4_5_8_3 0
B_4_5_8_4 0
B_4_5_8_5 0
B_4_5_9_1 0
B_4_5_9_2 0
B_4_5_9_3 0
B_4_5_9_4 0
B_4_5_9_5 0
B_4_5_10_1 0
B_4_5_10_2 0
B_4_5_10_3 0
B_4_5_10_4 0
B_4_5_10_5 1
B_5_1_1_1 0
B_5_1_1_2 0
B_5_1_1_3 0
B_5_1_1_4 0
B_5_1_1_5 0
B_5_1_2_1 0
B_5_1_2_2 0
B_5_1_2_3 0
B_5_1_2_4 0
B_5_1_2_5 0
B_5_1_3_1 0
B_5_1_3_2 0
B_5_1_3_3 0
B_5_1_3_4 0
B_5_1_3_5 0
B_5_1_4_1 0
B_5_1_4_2 0
B_5_1_4_3 0
B_5_1_4_4 0
B_5_1_4_5 0
B_5_1_5_1 0
B_5_1_5_2 0
B_5_1_5_3 0
B_5_1_5_4 0
B_5_1_5_5 0
B_5_1_6_1 0
B_5_1_6_2 0
B_5_1_6_3 0
B_5_1_6_4 0
B_5_1_6_5 0
B_5_1_7_1 1
B_5_1_7_2 0
B_5_1_7_3 0
B_5_1_7_4 0
B_5_1_7_5 0
B_5_1_8_1 1
B_5_1_8_2 0
B_5_1_8_3 0
B_5_1_8_4 0
B_5_1_8_5 0
B_5_1_9_1 0
B_5_1_9_2 0
B_5_1_9_3 0
B_5_1_9_4 0
B_5_1_9_5 0
B_5_1_10_1 1
B_5_1_10_2 0
B_5_1_10_3 0
B_5_1_10_4 0
B_5_1_10_5 0
B_5_2_1_1 0
B_5_2_1_2 0
B_5_2_1_3 0
B_5_2_1_4 0
B_5_2_1_5 0
B_5_2_2_1 0
B_5_2_2_2 0
B_5_2_2_3 0
B_5_2_2_4 0
B_5_2_2_5 0
B_5_2_3_1 0
B_5_2_3_2 0
B_5_2_3_3 0
B_5_2_3_4 0
B_5_2_3_5 0
B_5_2_4_1 0
B_5_2_4_2 0
B_5_2_4_3 0
B_5_2_4_4 0
B_5_2_4_5 0
B_5_2_5_1 0
B_5_2_5_2 0
B_5_2_5_3 0
B_5_2_5_4 0
B_5_2_5_5 0
B_5_2_6_1 0
B_5_2_6_2 0
B_5_2_6_3 0
B_5_2_6_4 1
B_5_2_6_5 0
B_5_2_7_1 0
B_5_2_7_2 0
B_5_2_7_3 1
B_5_2_7_4 1
B_5_2_7_5 0
B_5_2_8_1 0
B_5_2_8_2 0
B_5_2_8_3 1
B_5_2_8_4 1
B_5_2_8_5 0
B_5_2_9_1 0
B_5_2_9_2 0
B_5_2_9_3 0
B_5_2_9_4 0
B_5_2_9_5 0
B_5_2_10_1 0
B_5_2_10_2 1
B_5_2_10_3 1
B_5_2_10_4 1
B_5_2_10_5 0
B_5_3_1_1 0
B_5_3_1_2 0
B_5_3_1_3 0
B_5_3_1_4 0
B_5_3_1_5 0
B_5_3_2_1 0
B_5_3_2_2 0
B_5_3_2_3 0
B_5_3_2_4 0
B_5_3_2_5 0
B_5_3_3_1 0
B_5_3_3_2 0
B_5_3_3_3 0
B_5_3_3_4 0
B_5_3_3_5 0
B_5_3_4_1 0
B_5_3_4_2 0
B_5_3_4_3 0
B_5_3_4_4 0
B_5_3_4_5 0
B_5_3_5_1 0
B_5_3_5_2 0
B_5_3_5_3 0
B_5_3_5_4 0
B_5_3_5_5 0
B_5_3_6_1 0
B_5_3_6_2 0
B_5_3_6_3 0
B_5_3_6_4 1
B_5_3_6_5 0
B_5_3_7_1 0
B_5_3_7_2 0
B_5_3_7_3 1
B_5_3_7_4 0
B_5_3_7_5 0
B_5_3_8_1 0
B_5_3_8_2 0
B_5_3_8_3 1
B_5_3_8_4 1
B_5_3_8_5 0
B_5_3_9_1 0
B_5_3_9_2 0
B_5_3_9_3 0
B_5_3_9_4 1
B_5_3_9_5 0
B_5_3_10_1 0
B_5_3_10_2 1
B_5_3_10_3 0
B_5_3_10_4 0
B_5_3_10_5 0
B_5_4_1_1 0
B_5_4_1_2 0
B_5_4_1_3 0
B_5_4_1_4 0
B_5_4_1_5 0
B_5_4_2_1 0
B_5_4_2_2 0
B_5_4_2_3 0
B_5_4_2_4 0
B_5_4_2_5 0
B_5_4_3_1 0
B_5_4_3_2 0
B_5_4_3_3 0
B_5_4_3_4 0
B_5_4_3_5 0
B_5_4_4_1 0
B_5_4_4_2 0
B_5_4_4_3 0
B_5_4_4_4 0
B_5_4_4_5 0
B_5_4_5_1 0
B_5_4_5_2 0
B_5_4_5_3 0
B_5_4_5_4 0
B_5_4_5_5 0
B_5_4_6_1 0
B_5_4_6_2 0
B_5_4_6_3 1
B_5_4_6_4 1
B_5_4_6_5 0
B_5_4_7_1 0
B_5_4_7_2 0
B_5_4_7_3 0
B_5_4_7_4 0
B_5_4_7_5 0
B_5_4_8_1 0
B_5_4_8_2 0
B_5_4_8_3 1
B_5_4_8_4 1
B_5_4_8_5 0
B_5_4_9_1 0
B_5_4_9_2 0
B_5_4_9_3 1
B_5_4_9_4 0
B_5_4_9_5 0
B_5_4_10_1 0
B_5_4_10_2 0
B_5_4_10_3 0
B_5_4_10_4 1
B_5_4_10_5 0
B_5_5_1_1 0
B_5_5_1_2 0
B_5_5_1_3 0
B_5_5_1_4 0
B_5_5_1_5 0
B_5_5_2_1 0
B_5_5_2_2 0
B_5_5_2_3 0
B_5_5_2_4 0
B_5_5_2_5 0
B_5_5_3_1 0
B_5_5_3_2 0
B_5_5_3_3 0
B_5_5_3_4 0
B_5_5_3_5 0
B_5_5_4_1 0
B_5_5_4_2 0
B_5_5_4_3 0
B_5_5_4_4 0
B_5_5_4_5 0
B_5_5_5_1 0
B_5_5_5_2 0
B_5_5_5_3 0
B_5_5_5_4 0
B_5_5_5_5 0
B_5_5_6_1 0
B_5_5_6_2 0
B_5_5_6_3 0
B_5_5_6_4 0
B_5_5_6_5 1
B_5_5_7_1 0
B_5_5_7_2 0
B_5_5_7_3 0
B_5_5_7_4 0
B_5_5_7_5 1
B_5_5_8_1 0
B_5_5_8_2 0
B_5_5_8_3 0
B_5_5_8_4 0
B_5_5_8_5 1
B_5_5_9_1 0
B_5_5_9_2 0
B_5_5_9_3 0
B_5_5_9_4 0
B_5_5_9_5 1
B_5_5_10_1 0
B_5_5_10_2 0
B_5_5_10_3 0
B_5_5_10_4 0
B_5_5_10_5 1
B_6_1_1_1 0
B_6_1_1_2 0
B_6_1_1_3 0
B_6_1_1_4 0
B_6_1_1_5 0
B_6_1_2_1 0
B_6_1_2_2 0
B_6_1_2_3 0
B_6_1_2_4 0
B_6_1_2_5 0
B_6_1_3_1 0
B_6_1_3_2 0
B_6_1_3_3 0
B_6_1_3_4 0
B_6_1_3_5 0
B_6_1_4_1 0
B_6_1_4_2 0
B_6_1_4_3 0
B_6_1_4_4 0
B_6_1_4_5 0
B_6_1_5_1 0
B_6_1_5_2 0
B_6_1_5_3 0
B_6_1_5_4 0
B_6_1_5_5 0
B_6_1_6_1 0
B_6_1_6_2 0
B_6_1_6_3 0
B_6_1_6_4 0
B_6_1_6_5 0
B_6_1_7_1 1
B_6_1_7_2 0
B_6_1_7_3 0
B_6_1_7_4 0
B_6_1_7_5 0
B_6_1_8_1 1
B_6_1_8_2 0
B_6_1_8_3 0
B_6_1_8_4 0
B_6_1_8_5 0
B_6_1_9_1 1
B_6_1_9_2 0
B_6_1_9_3 0
B_6_1_9_4 0
B_6_1_9_5 0
B_6_1_10_1 1
B_6_1_10_2 0
B_6_1_10_3 0
B_6_1_10_4 0
B_6_1_10_5 0
B_6_2_1_1 0
B_6_2_1_2 0
B_6_2_1_3 0
B_6_2_1_4 0
B_6_2_1_5 0
B_6_2_2_1 0
B_6_2_2_2 0
B_6_2_2_3 0
B_6_2_2_4 0
B_6_2_2_5 0
B_6_2_3_1 0
B_6_2_3_2 0
B_6_2_3_3 0
B_6_2_3_4 0
B_6_2_3_5 0
B_6_2_4_1 0
B_6_2_4_2 0
B_6_2_4_3 0
B_6_2_4_4 0
B_6_2_4_5 0
B_6_2_5_1 0
B_6_2_5_2 0
B_6_2_5_3 0
B_6_2_5_4 0
B_6_2_5_5 0
B_6_2_6_1 0
B_6_2_6_2 0
B_6_2_6_3 0
B_6_2_6_4 0
B_6_2_6_5 0
B_6_2_7_1 0
B_6_2_7_2 0
B_6_2_7_3 0
B_6_2_7_4 0
B_6_2_7_5 0
B_6_2_8_1 0
B_6_2_8_2 0
B_6_2_8_3 1
B_6_2_8_4 1
B_6_2_8_5 0
B_6_2_9_1 0
B_6_2_9_2 0
B_6_2_9_3 1
B_6_2_9_4 0
B_6_2_9_5 0
B_6_2_10_1 0
B_6_2_10_2 1
B_6_2_10_3 0
B_6_2_10_4 1
B_6_2_10_5 0
B_6_3_1_1 0
B_6_3_1_2 0
B_6_3_1_3 0
B_6_3_1_4 0
B_6_3_1_5 0
B_6_3_2_1 0
B_6_3_2_2 0
B_6_3_2_3 0
B_6_3_2_4 0
B_6_3_2_5 0
B_6_3_3_1 0
B_6_3_3_2 0
B_6_3_3_3 0
B_6_3_3_4 0
B_6_3_3_5 0
B_6_3_4_1 0
B_6_3_4_2 0
B_6_3_4_3 0
B_6_3_4_4 0
B_6_3_4_5 0
B_6_3_5_1 0
B_6_3_5_2 0
B_6_3_5_3 0
B_6_3_5_4 0
B_6_3_5_5 0
B_6_3_6_1 0
B_6_3_6_2 0
B_6_3_6_3 0
B_6_3_6_4 0
B_6_3_6_5 0
B_6_3_7_1 0
B_6_3_7_2 1
B_6_3_7_3 0
B_6_3_7_4 1
B_6_3_7_5 0
B_6_3_8_1 0
B_6_3_8_2 0
B_6_3_8_3 1
B_6_3_8_4 1
B_6_3_8_5 0
B_6_3_9_1 0
B_6_3_9_2 0
B_6_3_9_3 0
B_6_3_9_4 0
B_6_3_9_5 0
B_6_3_10_1 0
B_6_3_10_2 0
B_6_3_10_3 0
B_6_3_10_4 0
B_6_3_10_5 0
B_6_4_1_1 0
B_6_4_1_2 0
B_6_4_1_3 0
B_6_4_1_4 0
B_6_4_1_5 0
B_6_4_2_1 0
B_6_4_2_2 0
B_6_4_2_3 0
B_6_4_2_4 0
B_6_4_2_5 0
B_6_4_3_1 0
B_6_4_3_2 0
B_6_4_3_3 0
B_6_4_3_4 0
B_6_4_3_5 0
B_6_4_4_1 0
B_6_4_4_2 0
B_6_4_4_3 0
B_6_4_4_4 0
B_6_4_4_5 0
B_6_4_5_1 0
B_6_4_5_2 0
B_6_4_5_3 0
B_6_4_5_4 0
B_6_4_5_5 0
B_6_4_6_1 0
B_6_4_6_2 0
B_6_4_6_3 0
B_6_4_6_4 0
B_6_4_6_5 0
B_6_4_7_1 0
B_6_4_7_2 0
B_6_4_7_3 0
B_6_4_7_4 0
B_6_4_7_5 0
B_6_4_8_1 0
B_6_4_8_2 0
B_6_4_8_3 1
B_6_4_8_4 0
B_6_4_8_5 0
B_6_4_9_1 0
B_6_4_9_2 1
B_6_4_9_3 1
B_6_4_9_4 0
B_6_4_9_5 0
B_6_4_10_1 0
B_6_4_10_2 0
B_6_4_10_3 0
B_6_4_10_4 0
B_6_4_10_5 0
B_6_5_1_1 0
B_6_5_1_2 0
B_6_5_1_3 0
B_6_5_1_4 0
B_6_5_1_5 0
B_6_5_2_1 0
B_6_5_2_2 0
B_6_5_2_3 0
B_6_5_2_4 0
B_6_5_2_5 0
B_6_5_3_1 0
B_6_5_3_2 0
B_6_5_3_3 0
B_6_5_3_4 0
B_6_5_3_5 0
B_6_5_4_1 0
B_6_5_4_2 0
B_6_5_4_3 0
B_6_5_4_4 0
B_6_5_4_5 0
B_6_5_5_1 0
B_6_5_5_2 0
B_6_5_5_3 0
B_6_5_5_4 0
B_6_5_5_5 0
B_6_5_6_1 0
B_6_5_6_2 0
B_6_5_6_3 0
B_6_5_6_4 0
B_6_5_6_5 0
B_6_5_7_1 0
B_6_5_7_2 0
B_6_5_7_3 0
B_6_5_7_4 0
B_6_5_7_5 0
B_6_5_8_1 0
B_6_5_8_2 0
B_6_5_8_3 0
B_6_5_8_4 0
B_6_5_8_5 0
B_6_5_9_1 0
B_6_5_9_2 0
B_6_5_9_3 0
B_6_5_9_4 0
B_6_5_9_5 0
B_6_5_10_1 0
B_6_5_10_2 0
B_6_5_10_3 0
B_6_5_10_4 0
B_6_5_10_5 1
B_7_1_1_1 0
B_7_1_1_2 0
B_7_1_1_3 0
B_7_1_1_4 0
B_7_1_1_5 0
B_7_1_2_1 0
B_7_1_2_2 0
B_7_1_2_3 0
B_7_1_2_4 0
B_7_1_2_5 0
B_7_1_3_1 0
B_7_1_3_2 0
B_7_1_3_3 0
B_7_1_3_4 0
B_7_1_3_5 0
B_7_1_4_1 0
B_7_1_4_2 0
B_7_1_4_3 0
B_7_1_4_4 0
B_7_1_4_5 0
B_7_1_5_1 0
B_7_1_5_2 0
B_7_1_5_3 0
B_7_1_5_4 0
B_7_1_5_5 0
B_7_1_6_1 0
B_7_1_6_2 0
B_7_1_6_3 0
B_7_1_6_4 0
B_7_1_6_5 0
B_7_1_7_1 0
B_7_1_7_2 0
B_7_1_7_3 0
B_7_1_7_4 0
B_7_1_7_5 0
B_7_1_8_1 1
B_7_1_8_2 0
B_7_1_8_3 0
B_7_1_8_4 0
B_7_1_8_5 0
B_7_1_9_1 1
B_7_1_9_2 0
B_7_1_9_3 0
B_7_1_9_4 0
B_7_1_9_5 0
B_7_1_10_1 0
B_7_1_10_2 0
B_7_1_10_3 0
B_7_1_10_4 0
B_7_1_10_5 0
B_7_2_1_1 0
B_7_2_1_2 0
B_7_2_1_3 0
B_7_2_1_4 0
B_7_2_1_5 0
B_7_2_2_1 0
B_7_2_2_2 0
B_7_2_2_3 0
B_7_2_2_4 0
B_7_2_2_5 0
B_7_2_3_1 0
B_7_2_3_2 0
B_7_2_3_3 0
B_7_2_3_4 0
B_7_2_3_5 0
B_7_2_4_1 0
B_7_2_4_2 0
B_7_2_4_3 0
B_7_2_4_4 0
B_7_2_4_5 0
B_7_2_5_1 0
B_7_2_5_2 0
B_7_2_5_3 0
B_7_2_5_4 0
B_7_2_5_5 0
B_7_2_6_1 0
B_7_2_6_2 0
B_7_2_6_3 0
B_7_2_6_4 0
B_7_2_6_5 0
B_7_2_7_1 0
B_7_2_7_2 0
B_7_2_7_3 0
B_7_2_7_4 0
B_7_2_7_5 0
B_7_2_8_1 0
B_7_2_8_2 1
B_7_2_8_3 0
B_7_2_8_4 0
B_7_2_8_5 0
B_7_2_9_1 0
B_7_2_9_2 1
B_7_2_9_3 0
B_7_2_9_4 0
B_7_2_9_5 0
B_7_2_10_1 0
B_7_2_10_2 0
B_7_2_10_3 0
B_7_2_10_4 0
B_7_2_10_5 0
B_7_3_1_1 0
B_7_3_1_2 0
B_7_3_1_3 0
B_7_3_1_4 0
B_7_3_1_5 0
B_7_3_2_1 0
B_7_3_2_2 0
B_7_3_2_3 0
B_7_3_2_4 0
B_7_3_2_5 0
B_7_3_3_1 0
B_7_3_3_2 0
B_7_3_3_3 0
B_7_3_3_4 0
B_7_3_3_5 0
B_7_3_4_1 0
B_7_3_4_2 0
B_7_3_4_3 0
B_7_3_4_4 0
B_7_3_4_5 0
B_7_3_5_1 0
B_7_3_5_2 0
B_7_3_5_3 0
B_7_3_5_4 0
B_7_3_5_5 0
B_7_3_6_1 0
B_7_3_6_2 0
B_7_3_6_3 0
B_7_3_6_4 0
B_7_3_6_5 0
B_7_3_7_1 0
B_7_3_7_2 0
B_7_3_7_3 0
B_7_3_7_4 0
B_7_3_7_5 0
B_7_3_8_1 0
B_7_3_8_2 1
B_7_3_8_3 0
B_7_3_8_4 1
B_7_3_8_5 0
B_7_3_9_1 0
B_7_3_9_2 0
B_7_3_9_3 1
B_7_3_9_4 1
B_7_3_9_5 0
B_7_3_10_1 0
B_7_3_10_2 1
B_7_3_10_3 1
B_7_3_10_4 1
B_7_3_10_5 0
B_7_4_1_1 0
B_7_4_1_2 0
B_7_4_1_3 0
B_7_4_1_4 0
B_7_4_1_5 0
B_7_4_2_1 0
B_7_4_2_2 0
B_7_4_2_3 0
B_7_4_2_4 0
B_7_4_2_5 0
B_7_4_3_1 0
B_7_4_3_2 0
B_7_4_3_3 0
B_7_4_3_4 0
B_7_4_3_5 0
B_7_4_4_1 0
B_7_4_4_2 0
B_7_4_4_3 0
B_7_4_4_4 0
B_7_4_4_5 0
B_7_4_5_1 0
B_7_4_5_2 0
B_7_4_5_3 0
B_7_4_5_4 0
B_7_4_5_5 0
B_7_4_6_1 0
B_7_4_6_2 0
B_7_4_6_3 0
B_7_4_6_4 0
B_7_4_6_5 0
B_7_4_7_1 0
B_7_4_7_2 0
B_7_4_7_3 0
B_7_4_7_4 0
B_7_4_7_5 0
B_7_4_8_1 0
B_7_4_8_2 0
B_7_4_8_3 0
B_7_4_8_4 0
B_7_4_8_5 0
B_7_4_9_1 0
B_7_4_9_2 0
B_7_4_9_3 0
B_7_4_9_4 0
B_7_4_9_5 0
B_7_4_10_1 0
B_7_4_10_2 0
B_7_4_10_3 0
B_7_4_10_4 0
B_7_4_10_5 0
B_7_5_1_1 0
B_7_5_1_2 0
B_7_5_1_3 0
B_7_5_1_4 0
B_7_5_1_5 0
B_7_5_2_1 0
B_7_5_2_2 0
B_7_5_2_3 0
B_7_5_2_4 0
B_7_5_2_5 0
B_7_5_3_1 0
B_7_5_3_2 0
B_7_5_3_3 0
B_7_5_3_4 0
B_7_5_3_5 0
B_7_5_4_1 0
B_7_5_4_2 0
B_7_5_4_3 0
B_7_5_4_4 0
B_7_5_4_5 0
B_7_5_5_1 0
B_7_5_5_2 0
B_7_5_5_3 0
B_7_5_5_4 0
B_7_5_5_5 0
B_7_5_6_1 0
B_7_5_6_2 0
B_7_5_6_3 0
B_7_5_6_4 0
B_7_5_6_5 0
B_7_5_7_1 0
B_7_5_7_2 0
B_7_5_7_3 0
B_7_5_7_4 0
B_7_5_7_5 0
B_7_5_8_1 0
B_7_5_8_2 0
B_7_5_8_3 0
B_7_5_8_4 0
B_7_5_8_5 0
B_7_5_9_1 0
B_7_5_9_2 0
B_7_5_9_3 0
B_7_5_9_4 0
B_7_5_9_5 0
B_7_5_10_1 0
B_7_5_10_2 0
B_7_5_10_3 0
B_7_5_10_4 0
B_7_5_10_5 1
B_8_1_1_1 0
B_8_1_1_2 0
B_8_1_1_3 0
B_8_1_1_4 0
B_8_1_1_5 0
B_8_1_2_1 0
B_8_1_2_2 0
B_8_1_2_3 0
B_8_1_2_4 0
B_8_1_2_5 0
B_8_1_3_1 0
B_8_1_3_2 0
B_8_1_3_3 0
B_8_1_3_4 0
B_8_1_3_5 0
B_8_1_4_1 0
B_8_1_4_2 0
B_8_1_4_3 0
B_8_1_4_4 0
B_8_1_4_5 0
B_8_1_5_1 0
B_8_1_5_2 0
B_8_1_5_3 0
B_8_1_5_4 0
B_8_1_5_5 0
B_8_1_6_1 0
B_8_1_6_2 0
B_8_1_6_3 0
B_8_1_6_4 0
B_8_1_6_5 0
B_8_1_7_1 0
B_8_1_7_2 0
B_8_1_7_3 0
B_8_1_7_4 0
B_8_1_7_5 0
B_8_1_8_1 0
B_8_1_8_2 0
B_8_1_8_3 0
B_8_1_8_4 0
B_8_1_8_5 0
B_8_1_9_1 1
B_8_1_9_2 0
B_8_1_9_3 0
B_8_1_9_4 0
B_8_1_9_5 0
B_8_1_10_1 1
B_8_1_10_2 0
B_8_1_10_3 0
B_8_1_10_4 0
B_8_1_10_5 0
B_8_2_1_1 0
B_8_2_1_2 0
B_8_2_1_3 0
B_8_2_1_4 0
B_8_2_1_5 0
B_8_2_2_1 0
B_8_2_2_2 0
B_8_2_2_3 0
B_8_2_2_4 0
B_8_2_2_5 0
B_8_2_3_1 0
B_8_2_3_2 0
B_8_2_3_3 0
B_8_2_3_4 0
B_8_2_3_5 0
B_8_2_4_1 0
B_8_2_4_2 0
B_8_2_4_3 0
B_8_2_4_4 0
B_8_2_4_5 0
B_8_2_5_1 0
B_8_2_5_2 0
B_8_2_5_3 0
B_8_2_5_4 0
B_8_2_5_5 0
B_8_2_6_1 0
B_8_2_6_2 0
B_8_2_6_3 0
B_8_2_6_4 0
B_8_2_6_5 0
B_8_2_7_1 0
B_8_2_7_2 0
B_8_2_7_3 0
B_8_2_7_4 0
B_8_2_7_5 0
B_8_2_8_1 0
B_8_2_8_2 0
B_8_2_8_3 0
B_8_2_8_4 0
B_8_2_8_5 0
B_8_2_9_1 0
B_8_2_9_2 0
B_8_2_9_3 0
B_8_2_9_4 0
B_8_2_9_5 0
B_8_2_10_1 0
B_8_2_10_2 0
B_8_2_10_3 1
B_8_2_10_4 1
B_8_2_10_5 0
B_8_3_1_1 0
B_8_3_1_2 0
B_8_3_1_3 0
B_8_3_1_4 0
B_8_3_1_5 0
B_8_3_2_1 0
B_8_3_2_2 0
B_8_3_2_3 0
B_8_3_2_4 0
B_8_3_2_5 0
B_8_3_3_1 0
B_8_3_3_2 0
B_8_3_3_3 0
B_8_3_3_4 0
B_8_3_3_5 0
B_8_3_4_1 0
B_8_3_4_2 0
B_8_3_4_3 0
B_8_3_4_4 0
B_8_3_4_5 0
B_8_3_5_1 0
B_8_3_5_2 0
B_8_3_5_3 0
B_8_3_5_4 0
B_8_3_5_5 0
B_8_3_6_1 0
B_8_3_6_2 0
B_8_3_6_3 0
B_8_3_6_4 0
B_8_3_6_5 0
B_8_3_7_1 0
B_8_3_7_2 0
B_8_3_7_3 0
B_8_3_7_4 0
B_8_3_7_5 0
B_8_3_8_1 0
B_8_3_8_2 0
B_8_3_8_3 0
B_8_3_8_4 0
B_8_3_8_5 0
B_8_3_9_1 0
B_8_3_9_2 0
B_8_3_9_3 0
B_8_3_9_4 1
B_8_3_9_5 0
B_8_3_10_1 0
B_8_3_10_2 0
B_8_3_10_3 0
B_8_3_10_4 1
B_8_3_10_5 0
B_8_4_1_1 0
B_8_4_1_2 0
B_8_4_1_3 0
B_8_4_1_4 0
B_8_4_1_5 0
B_8_4_2_1 0
B_8_4_2_2 0
B_8_4_2_3 0
B_8_4_2_4 0
B_8_4_2_5 0
B_8_4_3_1 0
B_8_4_3_2 0
B_8_4_3_3 0
B_8_4_3_4 0
B_8_4_3_5 0
B_8_4_4_1 0
B_8_4_4_2 0
B_8_4_4_3 0
B_8_4_4_4 0
B_8_4_4_5 0
B_8_4_5_1 0
B_8_4_5_2 0
B_8_4_5_3 0
B_8_4_5_4 0
B_8_4_5_5 0
B_8_4_6_1 0
B_8_4_6_2 0
B_8_4_6_3 0
B_8_4_6_4 0
B_8_4_6_5 0
B_8_4_7_1 0
B_8_4_7_2 0
B_8_4_7_3 0
B_8_4_7_4 0
B_8_4_7_5 0
B_8_4_8_1 0
B_8_4_8_2 0
B_8_4_8_3 0
B_8_4_8_4 0
B_8_4_8_5 0
B_8_4_9_1 0
B_8_4_9_2 0
B_8_4_9_3 0
B_8_4_9_4 0
B_8_4_9_5 0
B_8_4_10_1 0
B_8_4_10_2 0
B_8_4_10_3 0
B_8_4_10_4 1
B_8_4_10_5 0
B_8_5_1_1 0
B_8_5_1_2 0
B_8_5_1_3 0
B_8_5_1_4 0
B_8_5_1_5 0
B_8_5_2_1 0
B_8_5_2_2 0
B_8_5_2_3 0
B_8_5_2_4 0
B_8_5_2_5 0
B_8_5_3_1 0
B_8_5_3_2 0
B_8_5_3_3 0
B_8_5_3_4 0
B_8_5_3_5 0
B_8_5_4_1 0
B_8_5_4_2 0
B_8_5_4_3 0
B_8_5_4_4 0
B_8_5_4_5 0
B_8_5_5_1 0
B_8_5_5_2 0
B_8_5_5_3 0
B_8_5_5_4 0
B_8_5_5_5 0
B_8_5_6_1 0
B_8_5_6_2 0
B_8_5_6_3 0
B_8_5_6_4 0
B_8_5_6_5 0
B_8_5_7_1 0
B_8_5_7_2 0
B_8_5_7_3 0
B_8_5_7_4 0
B_8_5_7_5 0
B_8_5_8_1 0
B_8_5_8_2 0
B_8_5_8_3 0
B_8_5_8_4 0
B_8_5_8_5 0
B_8_5_9_1 0
B_8_5_9_2 0
B_8_5_9_3 0
B_8_5_9_4 0
B_8_5_9_5 0
B_8_5_10_1 0
B_8_5_10_2 0
B_8_5_10_3 0
B_8_5_10_4 0
B_8_5_10_5 0
B_9_1_1_1 0
B_9_1_1_2 0
B_9_1_1_3 0
B_9_1_1_4 0
B_9_1_1_5 0
B_9_1_2_1 0
B_9_1_2_2 0
B_9_1_2_3 0
B_9_1_2_4 0
B_9_1_2_5 0
B_9_1_3_1 0
B_9_1_3_2 0
B_9_1_3_3 0
B_9_1_3_4 0
B_9_1_3_5 0
B_9_1_4_1 0
B_9_1_4_2 0
B_9_1_4_3 0
B_9_1_4_4 0
B_9_1_4_5 0
B_9_1_5_1 0
B_9_1_5_2 0
B_9_1_5_3 0
B_9_1_5_4 0
B_9_1_5_5 0
B_9_1_6_1 0
B_9_1_6_2 0
B_9_1_6_3 0
B_9_1_6_4 0
B_9_1_6_5 0
B_9_1_7_1 0
B_9_1_7_2 0
B_9_1_7_3 0
B_9_1_7_4 0
B_9_1_7_5 0
B_9_1_8_1 0
B_9_1_8_2 0
B_9_1_8_3 0
B_9_1_8_4 0
B_9_1_8_5 0
B_9_1_9_1 0
B_9_1_9_2 0
B_9_1_9_3 0
B_9_1_9_4 0
B_9_1_9_5 0
B_9_1_10_1 1
B_9_1_10_2 0
B_9_1_10_3 0
B_9_1_10_4 0
B_9_1_10_5 0
B_9_2_1_1 0
B_9_2_1_2 0
B_9_2_1_3 0
B_9_2_1_4 0
B_9_2_1_5 0
B_9_2_2_1 0
B_9_2_2_2 0
B_9_2_2_3 0
B_9_2_2_4 0
B_9_2_2_5 0
B_9_2_3_1 0
B_9_2_3_2 0
B_9_2_3_3 0
B_9_2_3_4 0
B_9_2_3_5 0
B_9_2_4_1 0
B_9_2_4_2 0
B_9_2_4_3 0
B_9_2_4_4 0
B_9_2_4_5 0
B_9_2_5_1 0
B_9_2_5_2 0
B_9_2_5_3 0
B_9_2_5_4 0
B_9_2_5_5 0
B_9_2_6_1 0
B_9_2_6_2 0
B_9_2_6_3 0
B_9_2_6_4 0
B_9_2_6_5 0
B_9_2_7_1 0
B_9_2_7_2 0
B_9_2_7_3 0
B_9_2_7_4 0
B_9_2_7_5 0
B_9_2_8_1 0
B_9_2_8_2 0
B_9_2_8_3 0
B_9_2_8_4 0
B_9_2_8_5 0
B_9_2_9_1 0
B_9_2_9_2 0
B_9_2_9_3 0
B_9_2_9_4 0
B_9_2_9_5 0
B_9_2_10_1 0
B_9_2_10_2 0
B_9_2_10_3 0
B_9_2_10_4 1
B_9_2_10_5 0
B_9_3_1_1 0
B_9_3_1_2 0
B_9_3_1_3 0
B_9_3_1_4 0
B_9_3_1_5 0
B_9_3_2_1 0
B_9_3_2_2 0
B_9_3_2_3 0
B_9_3_2_4 0
B_9_3_2_5 0
B_9_3_3_1 0
B_9_3_3_2 0
B_9_3_3_3 0
B_9_3_3_4 0
B_9_3_3_5 0
B_9_3_4_1 0
B_9_3_4_2 0
B_9_3_4_3 0
B_9_3_4_4 0
B_9_3_4_5 0
B_9_3_5_1 0
B_9_3_5_2 0
B_9_3_5_3 0
B_9_3_5_4 0
B_9_3_5_5 0
B_9_3_6_1 0
B_9_3_6_2 0
B_9_3_6_3 0
B_9_3_6_4 0
B_9_3_6_5 0
B_9_3_7_1 0
B_9_3_7_2 0
B_9_3_7_3 0
B_9_3_7_4 0
B_9_3_7_5 0
B_9_3_8_1 0
B_9_3_8_2 0
B_9_3_8_3 0
B_9_3_8_4 0
B_9_3_8_5 0
B_9_3_9_1 0
B_9_3_9_2 0
B_9_3_9_3 0
B_9_3_9_4 0
B_9_3_9_5 0
B_9_3_10_1 0
B_9_3_10_2 0
B_9_3_10_3 1
B_9_3_10_4 1
B_9_3_10_5 0
B_9_4_1_1 0
B_9_4_1_2 0
B_9_4_1_3 0
B_9_4_1_4 0
B_9_4_1_5 0
B_9_4_2_1 0
B_9_4_2_2 0
B_9_4_2_3 0
B_9_4_2_4 0
B_9_4_2_5 0
B_9_4_3_1 0
B_9_4_3_2 0
B_9_4_3_3 0
B_9_4_3_4 0
B_9_4_3_5 0
B_9_4_4_1 0
B_9_4_4_2 0
B_9_4_4_3 0
B_9_4_4_4 0
B_9_4_4_5 0
B_9_4_5_1 0
B_9_4_5_2 0
B_9_4_5_3 0
B_9_4_5_4 0
B_9_4_5_5 0
B_9_4_6_1 0
B_9_4_6_2 0
B_9_4_6_3 0
B_9_4_6_4 0
B_9_4_6_5 0
B_9_4_7_1 0
B_9_4_7_2 0
B_9_4_7_3 0
B_9_4_7_4 0
B_9_4_7_5 0
B_9_4_8_1 0
B_9_4_8_2 0
B_9_4_8_3 0
B_9_4_8_4 0
B_9_4_8_5 0
B_9_4_9_1 0
B_9_4_9_2 0
B_9_4_9_3 0
B_9_4_9_4 0
B_9_4_9_5 0
B_9_4_10_1 0
B_9_4_10_2 0
B_9_4_10_3 0
B_9_4_10_4 1
B_9_4_10_5 0
B_9_5_1_1 0
B_9_5_1_2 0
B_9_5_1_3 0
B_9_5_1_4 0
B_9_5_1_5 0
B_9_5_2_1 0
B_9_5_2_2 0
B_9_5_2_3 0
B_9_5_2_4 0
B_9_5_2_5 0
B_9_5_3_1 0
B_9_5_3_2 0
B_9_5_3_3 0
B_9_5_3_4 0
B_9_5_3_5 0
B_9_5_4_1 0
B_9_5_4_2 0
B_9_5_4_3 0
B_9_5_4_4 0
B_9_5_4_5 0
B_9_5_5_1 0
B_9_5_5_2 0
B_9_5_5_3 0
B_9_5_5_4 0
B_9_5_5_5 0
B_9_5_6_1 0
B_9_5_6_2 0
B_9_5_6_3 0
B_9_5_6_4 0
B_9_5_6_5 0
B_9_5_7_1 0
B_9_5_7_2 0
B_9_5_7_3 0
B_9_5_7_4 0
B_9_5_7_5 0
B_9_5_8_1 0
B_9_5_8_2 0
B_9_5_8_3 0
B_9_5_8_4 0
B_9_5_8_5 0
B_9_5_9_1 0
B_9_5_9_2 0
B_9_5_9_3 0
B_9_5_9_4 0
B_9_5_9_5 0
B_9_5_10_1 0
B_9_5_10_2 0
B_9_5_10_3 0
B_9_5_10_4 0
B_9_5_10_5 0
B_10_1_1_1 0
B_10_1_1_2 0
B_10_1_1_3 0
B_10_1_1_4 0
B_10_1_1_5 0
B_10_1_2_1 0
B_10_1_2_2 0
B_10_1_2_3 0
B_10_1_2_4 0
B_10_1_2_5 0
B_10_1_3_1 0
B_10_1_3_2 0
B_10_1_3_3 0
B_10_1_3_4 0
B_10_1_3_5 0
B_10_1_4_1 0
B_10_1_4_2 0
B_10_1_4_3 0
B_10_1_4_4 0
B_10_1_4_5 0
B_10_1_5_1 0
B_10_1_5_2 0
B_10_1_5_3 0
B_10_1_5_4 0
B_10_1_5_5 0
B_10_1_6_1 0
B_10_1_6_2 0
B_10_1_6_3 0
B_10_1_6_4 0
B_10_1_6_5 0
B_10_1_7_1 0
B_10_1_7_2 0
B_10_1_7_3 0
B_10_1_7_4 0
B_10_1_7_5 0
B_10_1_8_1 0
B_10_1_8_2 0
B_10_1_8_3 0
B_10_1_8_4 0
B_10_1_8_5 0
B_10_1_9_1 0
B_10_1_9_2 0
B_10_1_9_3 0
B_10_1_9_4 0
B_10_1_9_5 0
B_10_1_10_1 0
B_10_1_10_2 0
B_10_1_10_3 0
B_10_1_10_4 0
B_10_1_10_5 0
B_10_2_1_1 0
B_10_2_1_2 0
B_10_2_1_3 0
B_10_2_1_4 0
B_10_2_1_5 0
B_10_2_2_1 0
B_10_2_2_2 0
B_10_2_2_3 0
B_10_2_2_4 0
B_10_2_2_5 0
B_10_2_3_1 0
B_10_2_3_2 0
B_10_2_3_3 0
B_10_2_3_4 0
B_10_2_3_5 0
B_10_2_4_1 0
B_10_2_4_2 0
B_10_2_4_3 0
B_10_2_4_4 0
B_10_2_4_5 0
B_10_2_5_1 0
B_10_2_5_2 0
B_10_2_5_3 0
B_10_2_5_4 0
B_10_2_5_5 0
B_10_2_6_1 0
B_10_2_6_2 0
B_10_2_6_3 0
B_10_2_6_4 0
B_10_2_6_5 0
B_10_2_7_1 0
B_10_2_7_2 0
B_10_2_7_3 0
B_10_2_7_4 0
B_10_2_7_5 0
B_10_2_8_1 0
B_10_2_8_2 0
B_10_2_8_3 0
B_10_2_8_4 0
B_10_2_8_5 0
B_10_2_9_1 0
B_10_2_9_2 0
B_10_2_9_3 0
B_10_2_9_4 0
B_10_2_9_5 0
B_10_2_10_1 0
B_10_2_10_2 0
B_10_2_10_3 0
B_10_2_10_4 0
B_10_2_10_5 0
B_10_3_1_1 0
B_10_3_1_2 0
B_10_3_1_3 0
B_10_3_1_4 0
B_10_3_1_5 0
B_10_3_2_1 0
B_10_3_2_2 0
B_10_3_2_3 0
B_10_3_2_4 0
B_10_3_2_5 0
B_10_3_3_1 0
B_10_3_3_2 0
B_10_3_3_3 0
B_10_3_3_4 0
B_10_3_3_5 0
B_10_3_4_1 0
B_10_3_4_2 0
B_10_3_4_3 0
B_10_3_4_4 0
B_10_3_4_5 0
B_10_3_5_1 0
B_10_3_5_2 0
B_10_3_5_3 0
B_10_3_5_4 0
B_10_3_5_5 0
B_10_3_6_1 0
B_10_3_6_2 0
B_10_3_6_3 0
B_10_3_6_4 0
B_10_3_6_5 0
B_10_3_7_1 0
B_10_3_7_2 0
B_10_3_7_3 0
B_10_3_7_4 0
B_10_3_7_5 0
B_10_3_8_1 0
B_10_3_8_2 0
B_10_3_8_3 0
B_10_3_8_4 0
B_10_3_8_5 0
B_10_3_9_1 0
B_10_3_9_2 0
B_10_3_9_3 0
B_10_3_9_4 0
B_10_3_9_5 0
B_10_3_10_1 0
B_10_3_10_2 0
B_10_3_10_3 0
B_10_3_10_4 0
B_10_3_10_5 0
B_10_4_1_1 0
B_10_4_1_2 0
B_10_4_1_3 0
B_10_4_1_4 0
B_10_4_1_5 0
B_10_4_2_1 0
B_10_4_2_2 0
B_10_4_2_3 0
B_10_4_2_4 0
B_10_4_2_5 0
B_10_4_3_1 0
B_10_4_3_2 0
B_10_4_3_3 0
B_10_4_3_4 0
B_10_4_3_5 0
B_10_4_4_1 0
B_10_4_4_2 0
B_10_4_4_3 0
B_10_4_4_4 0
B_10_4_4_5 0
B_10_4_5_1 0
B_10_4_5_2 0
B_10_4_5_3 0
B_10_4_5_4 0
B_10_4_5_5 0
B_10_4_6_1 0
B_10_4_6_2 0
B_10_4_6_3 0
B_10_4_6_4 0
B_10_4_6_5 0
B_10_4_7_1 0
B_10_4_7_2 0
B_10_4_7_3 0
B_10_4_7_4 0
B_10_4_7_5 0
B_10_4_8_1 0
B_10_4_8_2 0
B_10_4_8_3 0
B_10_4_8_4 0
B_10_4_8_5 0
B_10_4_9_1 0
B_10_4_9_2 0
B_10_4_9_3 0
B_10_4_9_4 0
B_10_4_9_5 0
B_10_4_10_1 0
B_10_4_10_2 0
B_10_4_10_3 0
B_10_4_10_4 0
B_10_4_10_5 0
B_10_5_1_1 0
B_10_5_1_2 0
B_10_5_1_3 0
B_10_5_1_4 0
B_10_5_1_5 0
B_10_5_2_1 0
B_10_5_2_2 0
B_10_5_2_3 0
B_10_5_2_4 0
B_10_5_2_5 0
B_10_5_3_1 0
B_10_5_3_2 0
B_10_5_3_3 0
B_10_5_3_4 0
B_10_5_3_5 0
B_10_5_4_1 0
B_10_5_4_2 0
B_10_5_4_3 0
B_10_5_4_4 0
B_10_5_4_5 0
B_10_5_5_1 0
B_10_5_5_2 0
B_10_5_5_3 0
B_10_5_5_4 0
B_10_5_5_5 0
B_10_5_6_1 0
B_10_5_6_2 0
B_10_5_6_3 0
B_10_5_6_4 0
B_10_5_6_5 0
B_10_5_7_1 0
B_10_5_7_2 0
B_10_5_7_3 0
B_10_5_7_4 0
B_10_5_7_5 0
B_10_5_8_1 0
B_10_5_8_2 0
B_10_5_8_3 0
B_10_5_8_4 0
B_10_5_8_5 0
B_10_5_9_1 0
B_10_5_9_2 0
B_10_5_9_3 0
B_10_5_9_4 0
B_10_5_9_5 0
B_10_5_10_1 0
B_10_5_10_2 0
B_10_5_10_3 0
B_10_5_10_4 0
B_10_5_10_5 0
